
Gurobi 7.5.2 (win64, Python) logging started 04/11/18 19:40:58

Academic license - for non-commercial use only
Optimize a model with 3271576 rows, 3269768 columns and 9807496 nonzeros
Variable types: 0 continuous, 3269768 integer (0 binary)
Coefficient statistics:
  Matrix range     [1e+00, 1e+07]
  Objective range  [5e-02, 9e+08]
  Bounds range     [1e+00, 1e+00]
  RHS range        [1e+00, 1e+07]
Presolve removed 3268864 rows and 1634432 columns (presolve time = 9s) ...
Presolve removed 3268864 rows and 1634432 columns (presolve time = 10s) ...
Presolve removed 3268864 rows and 1634432 columns (presolve time = 15s) ...
Presolve removed 3268864 rows and 1634432 columns (presolve time = 20s) ...
Presolve removed 3268864 rows and 1634432 columns (presolve time = 26s) ...
Presolve removed 3268864 rows and 1634432 columns (presolve time = 30s) ...
Presolve removed 3268864 rows and 1634432 columns
Presolve time: 30.25s
Presolved: 2712 rows, 1635336 columns, 3269768 nonzeros
Variable types: 0 continuous, 1635336 integer (1635336 binary)
Found heuristic solution: objective 2.106730e+10
Found heuristic solution: objective 4.635704e+09
Found heuristic solution: objective 3.147503e+09

Root simplex log...

Iteration    Objective       Primal Inf.    Dual Inf.      Time
       0    0.0000000e+00   1.808000e+03   0.000000e+00     42s

Starting sifting (using dual simplex for sub-problems)...

    Iter     Pivots    Primal Obj      Dual Obj        Time
       0          0     infinity      0.0000000e+00     42s
       1       5875   1.6293007e+13   2.4243148e+07     43s
       2       8783   1.3129934e+13   2.4243149e+07     43s
       3      12510   5.3439064e+12   2.4243149e+07     43s
       4      17439   9.7327767e+11   2.4243149e+07     43s
       5      21485   2.4267587e+07   2.4243149e+07     44s
       6      24257   2.4243240e+07   2.4243149e+07     44s
       7      26967   2.4243161e+07   2.4243149e+07     44s

Sifting complete

   29685    2.4243148e+07   0.000000e+00   0.000000e+00     44s

Root relaxation: objective 2.424315e+07, 29685 iterations, 2.51 seconds
Total elapsed time = 52.86s
Total elapsed time = 57.30s

    Nodes    |    Current Node    |     Objective Bounds      |     Work
 Expl Unexpl |  Obj  Depth IntInf | Incumbent    BestBd   Gap | It/Node Time

     0     0 2.4243e+07    0  869 3.1475e+09 2.4243e+07  99.2%     -   57s
H    0     0                    3.854240e+08 2.4243e+07  93.7%     -  120s
     0     0 3.5709e+07    0 2080 3.8542e+08 3.5709e+07  90.7%     -  130s
     0     0 4.7425e+07    0 1903 3.8542e+08 4.7425e+07  87.7%     -  146s
     0     0 6.1279e+07    0 2536 3.8542e+08 6.1279e+07  84.1%     -  155s
     0     0 6.1360e+07    0 2593 3.8542e+08 6.1360e+07  84.1%     -  170s
     0     0 6.1361e+07    0 2600 3.8542e+08 6.1361e+07  84.1%     -  172s
     0     0 7.3340e+07    0 3172 3.8542e+08 7.3340e+07  81.0%     -  184s
     0     0 7.3349e+07    0 3198 3.8542e+08 7.3349e+07  81.0%     -  203s
     0     0 8.0262e+07    0 3995 3.8542e+08 8.0262e+07  79.2%     -  220s
     0     0 8.0304e+07    0 4021 3.8542e+08 8.0304e+07  79.2%     -  231s
     0     0 8.7516e+07    0 4403 3.8542e+08 8.7516e+07  77.3%     -  260s
     0     0 9.0800e+07    0 4132 3.8542e+08 9.0800e+07  76.4%     -  284s
     0     0 9.0826e+07    0 4235 3.8542e+08 9.0826e+07  76.4%     -  288s
     0     0 9.8046e+07    0 4945 3.8542e+08 9.8046e+07  74.6%     -  316s
     0     0 9.9353e+07    0 4899 3.8542e+08 9.9353e+07  74.2%     -  340s
     0     0 9.9365e+07    0 4915 3.8542e+08 9.9365e+07  74.2%     -  344s
     0     0 1.0597e+08    0 5371 3.8542e+08 1.0597e+08  72.5%     -  385s
     0     0 1.0709e+08    0 5334 3.8542e+08 1.0709e+08  72.2%     -  448s
     0     0 1.0710e+08    0 5445 3.8542e+08 1.0710e+08  72.2%     -  453s
     0     0 1.1241e+08    0 5991 3.8542e+08 1.1241e+08  70.8%     -  502s
     0     0 1.1347e+08    0 6023 3.8542e+08 1.1347e+08  70.6%     -  550s
     0     0 1.1348e+08    0 6154 3.8542e+08 1.1348e+08  70.6%     -  555s
     0     0 1.1829e+08    0 6452 3.8542e+08 1.1829e+08  69.3%     -  637s
     0     0 1.1917e+08    0 6609 3.8542e+08 1.1917e+08  69.1%     -  733s
     0     0 1.1918e+08    0 6679 3.8542e+08 1.1918e+08  69.1%     -  739s
     0     0 1.2365e+08    0 7371 3.8542e+08 1.2365e+08  67.9%     -  818s
     0     0 1.2468e+08    0 7441 3.8542e+08 1.2468e+08  67.7%     -  895s
     0     0 1.2470e+08    0 7671 3.8542e+08 1.2470e+08  67.6%     -  904s
     0     0 1.2939e+08    0 7987 3.8542e+08 1.2939e+08  66.4%     -  991s
     0     0 1.3000e+08    0 8205 3.8542e+08 1.3000e+08  66.3%     - 1062s
     0     0 1.3003e+08    0 8408 3.8542e+08 1.3003e+08  66.3%     - 1073s
     0     0 1.3302e+08    0 9126 3.8542e+08 1.3302e+08  65.5%     - 1196s
     0     0 1.3302e+08    0 9126 3.8542e+08 1.3302e+08  65.5%     - 1363s
     0     2 1.3302e+08    0 9126 3.8542e+08 1.3302e+08  65.5%     - 1543s
     1     4 1.3317e+08    1 9068 3.8542e+08 1.3317e+08  65.4%  78.0 1605s
     3     8 1.3490e+08    2 8644 3.8542e+08 1.3335e+08  65.4%  2508 1818s
     7    12 1.3528e+08    3 8606 3.8542e+08 1.3491e+08  65.0%  2193 1886s
    11    16 1.4243e+08    3 7616 3.8542e+08 1.3528e+08  64.9%  1742 1952s
    15    17 1.3528e+08    4 8612 3.8542e+08 1.3528e+08  64.9%  1297 1958s
    19    19 1.3543e+08    5 8570 3.8542e+08 1.3533e+08  64.9%  1041 1966s
    23    25 1.3550e+08    6 8564 3.8542e+08 1.3533e+08  64.9%   870 1990s
    29    30 1.3557e+08    7 8552 3.8542e+08 1.3533e+08  64.9%   763 2140s
    33    33 1.3596e+08    8 8568 3.8542e+08 1.3533e+08  64.9%   717 2197s
    40    43 1.3607e+08    9 8424 3.8542e+08 1.3533e+08  64.9%   614 2231s
    46    45 1.3640e+08   10 8298 3.8542e+08 1.3533e+08  64.9%   666 2306s
    55    56 1.3659e+08   11 8302 3.8542e+08 1.3533e+08  64.9%   576 2328s
    65    67 1.3726e+08   11 7588 3.8542e+08 1.3533e+08  64.9%   511 2361s
    78    79 1.3691e+08   12 8139 3.8542e+08 1.3533e+08  64.9%   441 2385s
    91    92 1.3705e+08   13 8171 3.8542e+08 1.3533e+08  64.9%   385 2414s
   105   106 1.3751e+08   16 8184 3.8542e+08 1.3533e+08  64.9%   357 2638s
   109   109 1.3762e+08   17 8111 3.8542e+08 1.3533e+08  64.9%   347 2658s
   127   128 1.3765e+08   18 8198 3.8542e+08 1.3533e+08  64.9%   303 2688s
   145   149 1.3790e+08   20 8170 3.8542e+08 1.3533e+08  64.9%   274 2721s
   165   163 1.3831e+08   23 7588 3.8542e+08 1.3533e+08  64.9%   261 2744s
   189   191 1.3889e+08   32 7602 3.8542e+08 1.3533e+08  64.9%   234 2771s
   211   212 1.3907e+08   41 7547 3.8542e+08 1.3533e+08  64.9%   218 2795s
   237   238 1.3922e+08   51 7578 3.8542e+08 1.3533e+08  64.9%   203 2823s
   270   271 1.3955e+08   62 7533 3.8542e+08 1.3533e+08  64.9%   184 2844s
   300   300 1.3964e+08   74 7468 3.8542e+08 1.3533e+08  64.9%   169 2866s
   323   324 1.4036e+08   79 7433 3.8542e+08 1.3533e+08  64.9%   159 2885s
   364   365 1.4059e+08   90 7394 3.8542e+08 1.3533e+08  64.9%   142 2903s
   410   411 1.4081e+08  102 7307 3.8542e+08 1.3533e+08  64.9%   127 2925s
   458   459 1.4107e+08  116 7237 3.8542e+08 1.3533e+08  64.9%   115 2949s
   471   472 1.4159e+08  119 7117 3.8542e+08 1.3533e+08  64.9%   114 2972s
   494   496 1.4189e+08  125 7002 3.8542e+08 1.3533e+08  64.9%   111 3016s
   521   521 1.4204e+08  133 6935 3.8542e+08 1.3533e+08  64.9%   111 3038s
   582   583 1.4229e+08  150 6970 3.8542e+08 1.3533e+08  64.9%   100 3075s
   638   641 1.4297e+08  162 6869 3.8542e+08 1.3533e+08  64.9%  92.2 3115s
   679   679 1.4309e+08  177 6813 3.8542e+08 1.3533e+08  64.9%  93.0 3173s
   705   705 1.4481e+08  186 6756 3.8542e+08 1.3533e+08  64.9%  94.2 3205s
   753   754 1.4501e+08  193 6739 3.8542e+08 1.3533e+08  64.9%  90.1 3233s
   815   818 1.4593e+08  211 6597 3.8542e+08 1.3533e+08  64.9%  86.3 3265s
   873   872 1.4672e+08  222 6516 3.8542e+08 1.3533e+08  64.9%  84.7 3308s
   936   937 1.4742e+08  233 6377 3.8542e+08 1.3533e+08  64.9%  81.1 3401s
   956   957 1.4863e+08  238 6310 3.8542e+08 1.3533e+08  64.9%  79.7 3435s
  1010  1013 1.4928e+08  246 6237 3.8542e+08 1.3533e+08  64.9%  79.7 3467s
  1079  1078 1.5025e+08  264 6188 3.8542e+08 1.3533e+08  64.9%  77.8 3492s
  1159  1160 1.5059e+08  284 6150 3.8542e+08 1.3533e+08  64.9%  73.0 3523s
  1235  1236 1.5173e+08  304 5995 3.8542e+08 1.3533e+08  64.9%  69.7 3547s
  1315  1319 1.5269e+08  324 5886 3.8542e+08 1.3533e+08  64.9%  66.4 3589s
  1382  1382 1.5315e+08  343 5813 3.8542e+08 1.3533e+08  64.9%  67.3 3635s
  1445  1447 1.5591e+08  362 5572 3.8542e+08 1.3533e+08  64.9%  68.2 3678s
  1489  1491 1.5745e+08  369 5452 3.8542e+08 1.3533e+08  64.9%  71.0 3734s
  1545  1549 1.5776e+08  382 5292 3.8542e+08 1.3533e+08  64.9%  76.1 3785s
  1582  1580 1.5917e+08  389 5206 3.8542e+08 1.3533e+08  64.9%  81.5 4036s
  1586  1588 1.5918e+08  390 5195 3.8542e+08 1.3533e+08  64.9%  81.3 4109s
  1631  1630 1.6049e+08  399 5088 3.8542e+08 1.3533e+08  64.9%  87.2 4167s
  1679  1679 1.6286e+08  410 4940 3.8542e+08 1.3533e+08  64.9%  90.1 4235s
  1712  1712 1.6330e+08  417 4925 3.8542e+08 1.3533e+08  64.9%  95.8 4325s
  1747  1750 1.6377e+08  423 4901 3.8542e+08 1.3533e+08  64.9%   105 4388s
  1804  1804 1.6670e+08  440 4749 3.8542e+08 1.3533e+08  64.9%   108 4448s
  1879  1879 1.6855e+08  454 4703 3.8542e+08 1.3533e+08  64.9%   109 4484s
  1953  1956 1.9185e+08  474 4448 3.8542e+08 1.3533e+08  64.9%   107 4535s
  2016  2016 1.8631e+08  480 4537 3.8542e+08 1.3533e+08  64.9%   110 4590s
  2077  2080 2.0660e+08  488 4319 3.8542e+08 1.3533e+08  64.9%   114 4641s
  2141  2140 2.2985e+08  501 2829 3.8542e+08 1.3533e+08  64.9%   117 4702s
  2188  2190 2.1493e+08  514 4195 3.8542e+08 1.3533e+08  64.9%   121 4768s
  2259  2261 2.1981e+08  531 4057 3.8542e+08 1.3533e+08  64.9%   123 4825s
  2316  2315 2.2628e+08  548 3844 3.8542e+08 1.3533e+08  64.9%   125 4899s
  2363  2365 2.3021e+08  560 3467 3.8542e+08 1.3533e+08  64.9%   129 4963s
  2405  2406 2.3387e+08  564 3514 3.8542e+08 1.3533e+08  64.9%   135 5023s
  2472  2472 2.5638e+08  582 3482 3.8542e+08 1.3533e+08  64.9%   136 5078s
  2525  2522 2.6661e+08  593 3381 3.8542e+08 1.3533e+08  64.9%   141 5125s
  2600  2596 2.7282e+08  612 3295 3.8542e+08 1.3533e+08  64.9%   142 5170s
  2680  2666 2.9725e+08  630 2867 3.8542e+08 1.3533e+08  64.9%   140 5226s
H 2749  2725                    3.836783e+08 1.3533e+08  64.7%   140 5567s
  2753  2730 2.9215e+08  648 3037 3.8368e+08 1.3533e+08  64.7%   140 5606s
  2833  2809 2.9224e+08  668 3023 3.8368e+08 1.3533e+08  64.7%   137 5644s
  2913  2887 2.9333e+08  685 2795 3.8368e+08 1.3533e+08  64.7%   135 5684s
  2993  2974 2.9350e+08  704 2658 3.8368e+08 1.3533e+08  64.7%   134 5772s
  3061  3034 3.1490e+08  722 1485 3.8368e+08 1.3533e+08  64.7%   136 5824s
  3125  3099 3.0601e+08  727 2722 3.8368e+08 1.3533e+08  64.7%   140 5870s
  3192  3168 3.0746e+08  747 2667 3.8368e+08 1.3533e+08  64.7%   139 5945s
  3261  3235 3.1296e+08  762 2467 3.8368e+08 1.3533e+08  64.7%   142 5991s
  3323  3298 3.1473e+08  779 2310 3.8368e+08 1.3533e+08  64.7%   144 6029s
  3383  3360 3.2060e+08  755 2264 3.8368e+08 1.3533e+08  64.7%   144 6030s
  3399  3373 3.3550e+08  796 1792 3.8368e+08 1.3533e+08  64.7%   145 6072s
  3472  3449 3.3701e+08  814 1583 3.8368e+08 1.3533e+08  64.7%   145 6106s
  3541  3518 3.3766e+08  834 1415 3.8368e+08 1.3533e+08  64.7%   144 6133s
  3621  3591 3.6373e+08  849 1138 3.8368e+08 1.3533e+08  64.7%   144 6169s
  3695  3666 3.5413e+08  865 1107 3.8368e+08 1.3533e+08  64.7%   143 6205s
  3770  3738 3.5423e+08  884  987 3.8368e+08 1.3533e+08  64.7%   143 6253s
  3846  3809 3.5450e+08  904  887 3.8368e+08 1.3533e+08  64.7%   141 6287s
  3916  3879 3.5473e+08  924  703 3.8368e+08 1.3533e+08  64.7%   140 6333s
  3982  3937 3.5536e+08  944  436 3.8368e+08 1.3533e+08  64.7%   139 6407s
  4049  4002 3.7764e+08  962  178 3.8368e+08 1.3533e+08  64.7%   139 6452s
  4117  4047 3.8303e+08  977   58 3.8368e+08 1.3597e+08  64.6%   140 6615s
  4164  4080 1.5305e+08    6 7336 3.8368e+08 1.3597e+08  64.6%   141 6721s
  4226  4126 3.0930e+08  677 9126 3.8368e+08 1.3597e+08  64.6%   141 7602s
H 4227  3920                    3.452799e+08 1.3597e+08  60.6%   141 8047s
  4228  3920 2.7409e+08  542  863 3.4528e+08 1.3597e+08  60.6%   141 8529s
  4229  3921 3.1732e+08  737 1220 3.4528e+08 1.3597e+08  60.6%   141 8578s
  4230  3922 2.9256e+08  670 2087 3.4528e+08 1.3597e+08  60.6%   141 8599s
  4231  3922 2.5935e+08  488 2823 3.4528e+08 1.3597e+08  60.6%   141 8624s
  4232  3923 1.8759e+08  121 3595 3.4528e+08 1.3597e+08  60.6%   141 8656s
  4233  3924 3.4528e+08  947 3982 3.4528e+08 1.3597e+08  60.6%   141 8746s
  4234  3924 2.0239e+08  394 4482 3.4528e+08 1.3597e+08  60.6%   141 8836s
  4235  3925 1.9166e+08  351 5139 3.4528e+08 1.3597e+08  60.6%   141 8958s
  4236  3926 2.3321e+08  452 5825 3.4528e+08 1.3597e+08  60.6%   141 9158s
  4237  3926 2.7677e+08  590 6445 3.4528e+08 1.3597e+08  60.6%   141 9489s
  4238  3927 2.8506e+08  632 6911 3.4528e+08 1.3597e+08  60.6%   141 9745s
  4239  3928 1.8385e+08  131 7713 3.4528e+08 1.3597e+08  60.6%   141 9951s
  4240  3928 3.2716e+08  752 7895 3.4528e+08 1.3597e+08  60.6%   141 10408s
  4241  3929 2.7081e+08  610 8524 3.4528e+08 1.3597e+08  60.6%   141 10468s
  4242  3930 2.5954e+08  508 8640 3.4528e+08 1.3597e+08  60.6%   141 10494s
  4243  3930 2.5795e+08  585 8842 3.4528e+08 1.3597e+08  60.6%   141 10506s
  4244  3931 3.4528e+08  893 8770 3.4528e+08 1.3597e+08  60.6%   141 10962s
  4245  3932 1.9052e+08  207 9124 3.4528e+08 1.3791e+08  60.1%   141 11848s
  4246  3932 3.0930e+08  677 9545 3.4528e+08 1.3837e+08  59.9%   140 11979s
  4247  3933 2.9152e+08  612 9678 3.4528e+08 1.3839e+08  59.9%   140 12002s
  4248  3934 2.7409e+08  542 9664 3.4528e+08 1.3840e+08  59.9%   140 12635s
  4249  3934 3.1732e+08  737 10062 3.4528e+08 1.4237e+08  58.8%   140 13825s
  4250  3935 2.9256e+08  670 10014 3.4528e+08 1.4322e+08  58.5%   140 14231s
  4251  3936 2.5935e+08  488 10148 3.4528e+08 1.4340e+08  58.5%   140 14397s
  4252  3936 1.8759e+08  121 10113 3.4528e+08 1.4341e+08  58.5%   140 14785s
  4253  3937 3.4528e+08  947 10750 3.4528e+08 1.4662e+08  57.5%   140 15850s
  4254  3938 2.0239e+08  394 10842 3.4528e+08 1.4689e+08  57.5%   140 16233s
  4255  3938 1.9166e+08  351 11167 3.4528e+08 1.4693e+08  57.4%   140 16289s
  4256  3939 2.3321e+08  452 11038 3.4528e+08 1.4696e+08  57.4%   140 16335s
  4257  3940 2.7677e+08  590 11088 3.4528e+08 1.4697e+08  57.4%   140 16798s
  4258  3940 2.8506e+08  632 12094 3.4528e+08 1.4938e+08  56.7%   140 17587s
  4259  3941 1.8385e+08  131 12152 3.4528e+08 1.4943e+08  56.7%   140 17882s
  4260  3942 3.2716e+08  752 12357 3.4528e+08 1.4944e+08  56.7%   140 18503s
  4261  3942 2.7081e+08  610 12729 3.4528e+08 1.5146e+08  56.1%   140 19709s
  4262  3943 2.5954e+08  508 12884 3.4528e+08 1.5147e+08  56.1%   140 20276s
  4263  3944 2.5795e+08  585 12652 3.4528e+08 1.5474e+08  55.2%   140 21235s
  4264  3944 3.4528e+08  893 12670 3.4528e+08 1.5475e+08  55.2%   140 21747s
  4265  3945 1.9052e+08  207 14367 3.4528e+08 1.5708e+08  54.5%   140 22928s
  4266  3946 3.0930e+08  677 14504 3.4528e+08 1.5710e+08  54.5%   140 23018s
  4267  3946 2.9152e+08  612 14640 3.4528e+08 1.5710e+08  54.5%   140 23663s
  4268  3947 2.7409e+08  542 14517 3.4528e+08 1.5928e+08  53.9%   140 24818s
  4269  3948 3.1732e+08  737 14747 3.4528e+08 1.5932e+08  53.9%   140 24881s
  4270  3948 2.9256e+08  670 14916 3.4528e+08 1.5932e+08  53.9%   140 25542s
  4271  3949 2.5935e+08  488 16104 3.4528e+08 1.6169e+08  53.2%   140 26590s
  4272  3950 1.8759e+08  121 16335 3.4528e+08 1.6170e+08  53.2%   140 27334s
  4273  3950 3.4528e+08  947 16389 3.4528e+08 1.6403e+08  52.5%   140 29020s
  4274  3951 2.0239e+08  394 16543 3.4528e+08 1.6405e+08  52.5%   140 29088s
  4275  3952 1.9166e+08  351 16615 3.4528e+08 1.6405e+08  52.5%   140 29867s
  4276  3952 2.3321e+08  452 16762 3.4528e+08 1.6643e+08  51.8%   140 31161s
  4277  3953 2.7677e+08  590 16652 3.4528e+08 1.6647e+08  51.8%   139 31214s
  4278  3954 2.8506e+08  632 16739 3.4528e+08 1.6647e+08  51.8%   139 32028s
  4279  3954 1.8385e+08  131 17331 3.4528e+08 1.6777e+08  51.4%   139 32963s
  4280  3955 3.2716e+08  752 16278 3.4528e+08 1.6910e+08  51.0%   139 33201s
  4281  3956 2.7081e+08  610 16681 3.4528e+08 1.7006e+08  50.7%   139 33406s
  4282  3956 2.5954e+08  508 17322 3.4528e+08 1.7010e+08  50.7%   139 33476s
  4283  3957 2.5795e+08  585 17528 3.4528e+08 1.7011e+08  50.7%   139 34283s
  4284  3958 3.4528e+08  893 17490 3.4528e+08 1.7013e+08  50.7%   139 34336s
  4285  3958 1.9052e+08  207 17184 3.4528e+08 1.7040e+08  50.6%   139 34406s
  4286  3959 3.0930e+08  677 17515 3.4528e+08 1.7102e+08  50.5%   139 34613s
  4287  3960 2.9152e+08  612 17710 3.4528e+08 1.7132e+08  50.4%   139 34643s
  4288  3960 2.7409e+08  542 17636 3.4528e+08 1.7133e+08  50.4%   139 34659s
  4289  3961 3.1732e+08  737 17641 3.4528e+08 1.7134e+08  50.4%   139 34695s
  4290  3962 2.9256e+08  670 17720 3.4528e+08 1.7141e+08  50.4%   139 34708s
  4291  3962 2.5935e+08  488 17695 3.4528e+08 1.7148e+08  50.3%   139 34736s
  4292  3963 1.8759e+08  121 17379 3.4528e+08 1.7160e+08  50.3%   139 34837s
  4293  3964 3.4528e+08  947 16752 3.4528e+08 1.7224e+08  50.1%   139 34919s
  4294  3964 2.0239e+08  394 17181 3.4528e+08 1.7250e+08  50.0%   139 34963s
  4295  3965 1.9166e+08  351 17138 3.4528e+08 1.7251e+08  50.0%   139 34978s
  4296  3966 2.3321e+08  452 17135 3.4528e+08 1.7252e+08  50.0%   139 35014s
  4297  3966 2.7677e+08  590 17260 3.4528e+08 1.7253e+08  50.0%   139 35033s
  4298  3967 2.8506e+08  632 17259 3.4528e+08 1.7253e+08  50.0%   139 35037s
  4300  3970 3.2716e+08  752 9126 3.4528e+08 1.7253e+08  50.0%   195 35057s
  4302  3971 2.5954e+08  508  856 3.4528e+08 1.7253e+08  50.0%   195 35118s
  4303  3972 2.5795e+08  585 1238 3.4528e+08 1.7253e+08  50.0%   195 35172s
  4304  3973 3.4528e+08  893 2077 3.4528e+08 1.7253e+08  50.0%   195 35189s
  4305  3973 1.9052e+08  207 2910 3.4528e+08 1.7253e+08  50.0%   195 35211s
  4306  3974 3.0930e+08  677 3438 3.4528e+08 1.7253e+08  50.0%   195 35241s
  4307  3975 2.9152e+08  612 3796 3.4528e+08 1.7253e+08  50.0%   195 35291s
  4308  3975 2.7409e+08  542 4759 3.4528e+08 1.7253e+08  50.0%   195 35348s
  4309  3976 3.1732e+08  737 5588 3.4528e+08 1.7253e+08  50.0%   195 35411s
  4310  3977 2.9256e+08  670 6020 3.4528e+08 1.7253e+08  50.0%   195 35560s
  4311  3977 2.5935e+08  488 6762 3.4528e+08 1.7253e+08  50.0%   195 35711s
  4312  3978 1.8759e+08  121 7186 3.4528e+08 1.7253e+08  50.0%   195 35908s
  4313  3979 3.4528e+08  947 8311 3.4528e+08 1.7253e+08  50.0%   195 36148s
  4314  3979 2.0239e+08  394 8759 3.4528e+08 1.7253e+08  50.0%   194 36388s
  4315  3980 1.9166e+08  351 9256 3.4528e+08 1.7253e+08  50.0%   194 36748s
  4316  3981 2.3321e+08  452 9756 3.4528e+08 1.7253e+08  50.0%   194 37186s
  4317  3981 2.7677e+08  590 10259 3.4528e+08 1.7253e+08  50.0%   194 37802s
  4318  3982 2.8506e+08  632 10879 3.4528e+08 1.7253e+08  50.0%   194 38036s
  4319  3983 1.8385e+08  131 11384 3.4528e+08 1.7253e+08  50.0%   194 38667s
  4320  3983 3.2716e+08  752 12154 3.4528e+08 1.7253e+08  50.0%   194 39127s
  4321  3984 2.7081e+08  610 12773 3.4528e+08 1.7253e+08  50.0%   194 39490s
  4322  3985 2.5954e+08  508 13429 3.4528e+08 1.7253e+08  50.0%   194 40031s
  4323  3985 2.5795e+08  585 13942 3.4528e+08 1.7253e+08  50.0%   194 40304s
  4324  3986 3.4528e+08  893 14748 3.4528e+08 1.7253e+08  50.0%   194 40565s
  4325  3987 1.9052e+08  207 15304 3.4528e+08 1.7253e+08  50.0%   194 41288s
  4326  3987 3.0930e+08  677 15493 3.4528e+08 1.7253e+08  50.0%   194 41610s
  4327  3988 2.9152e+08  612 16350 3.4528e+08 1.7253e+08  50.0%   194 41882s
  4328  3989 2.7409e+08  542 16456 3.4528e+08 1.7253e+08  50.0%   194 42062s
  4329  3989 3.1732e+08  737 17016 3.4528e+08 1.7253e+08  50.0%   194 42140s
  4330  3990 2.9256e+08  670 17290 3.4528e+08 1.7253e+08  50.0%   194 42190s
  4331  3991 2.5935e+08  488 16955 3.4528e+08 1.7253e+08  50.0%   194 42232s
  4332  3991 1.8759e+08  121 17158 3.4528e+08 1.7253e+08  50.0%   194 43254s
  4333  3992 3.4528e+08  947 17811 3.4528e+08 1.7400e+08  49.6%   194 44189s
  4334  3993 2.0239e+08  394 16866 3.4528e+08 1.7443e+08  49.5%   194 44389s
  4335  3993 1.9166e+08  351 17040 3.4528e+08 1.7445e+08  49.5%   194 44564s
  4336  3994 2.3321e+08  452 17217 3.4528e+08 1.7448e+08  49.5%   194 44602s
  4337  3995 2.7677e+08  590 17369 3.4528e+08 1.7448e+08  49.5%   193 45539s
  4338  3995 2.8506e+08  632 17423 3.4528e+08 1.7451e+08  49.5%   193 45595s
  4339  3996 1.8385e+08  131 17413 3.4528e+08 1.7473e+08  49.4%   193 45632s
  4340  3997 3.2716e+08  752 18002 3.4528e+08 1.7517e+08  49.3%   193 45795s
  4341  3997 2.7081e+08  610 17946 3.4528e+08 1.7533e+08  49.2%   193 45829s
  4342  3998 2.5954e+08  508 17949 3.4528e+08 1.7534e+08  49.2%   193 46522s
  4343  3999 2.5795e+08  585 18019 3.4528e+08 1.7535e+08  49.2%   193 46573s
  4344  3999 3.4528e+08  893 17961 3.4528e+08 1.7543e+08  49.2%   193 46598s
  4345  4000 1.9052e+08  207 16684 3.4528e+08 1.7570e+08  49.1%   193 46804s
  4346  4001 3.0930e+08  677 17027 3.4528e+08 1.7683e+08  48.8%   193 46973s
  4347  4001 2.9152e+08  612 17087 3.4528e+08 1.7709e+08  48.7%   193 47160s
  4348  4002 2.7409e+08  542 17009 3.4528e+08 1.7723e+08  48.7%   193 47209s
  4349  4003 3.1732e+08  737 16223 3.4528e+08 1.7730e+08  48.6%   193 47317s
  4350  4003 2.9256e+08  670 16229 3.4528e+08 1.7750e+08  48.6%   193 47456s
  4351  4004 2.5935e+08  488 16301 3.4528e+08 1.7753e+08  48.6%   193 47512s
  4352  4005 1.8759e+08  121 16415 3.4528e+08 1.7753e+08  48.6%   193 48240s
  4353  4005 3.4528e+08  947 16553 3.4528e+08 1.7759e+08  48.6%   193 49094s
  4354  4006 2.0239e+08  394 16520 3.4528e+08 1.7797e+08  48.5%   193 49157s
  4355  4007 1.9166e+08  351 15936 3.4528e+08 1.7840e+08  48.3%   193 49360s
  4356  4007 2.3321e+08  452 16498 3.4528e+08 1.7916e+08  48.1%   193 49467s
  4357  4008 2.7677e+08  590 16379 3.4528e+08 1.7919e+08  48.1%   193 49481s
  4358  4009 2.8506e+08  632 16471 3.4528e+08 1.7919e+08  48.1%   193 50283s
  4359  4009 1.8385e+08  131 16806 3.4528e+08 1.7920e+08  48.1%   192 50340s
  4360  4010 3.2716e+08  752 16798 3.4528e+08 1.7956e+08  48.0%   192 50617s
  4361  4011 2.7081e+08  610 17095 3.4528e+08 1.7981e+08  47.9%   192 50679s
  4362  4011 2.5954e+08  508 17091 3.4528e+08 1.7987e+08  47.9%   192 50693s
  4363  4012 2.5795e+08  585 17036 3.4528e+08 1.7987e+08  47.9%   192 51264s
  4364  4013 3.4528e+08  893 17034 3.4528e+08 1.7987e+08  47.9%   192 51269s
  4365  4013 1.9052e+08  207 17034 3.4528e+08 1.7987e+08  47.9%   192 51752s
  4366  4017 1.7988e+08   24 17037 3.4528e+08 1.7988e+08  47.9%   238 52593s
  4368  4020 1.7988e+08   25 16998 3.4528e+08 1.7988e+08  47.9%   239 53205s
  4372  4023 1.7988e+08   26 16975 3.4528e+08 1.7988e+08  47.9%   241 53224s
  4376  4026 1.9952e+08   26 13919 3.4528e+08 1.7988e+08  47.9%   242 53726s
  4380  4028 1.7989e+08   27 16964 3.4528e+08 1.7989e+08  47.9%   243 53783s
  4384  4030 1.9891e+08   27 14209 3.4528e+08 1.7989e+08  47.9%   243 54032s
  4388  4035 1.7989e+08   28 16953 3.4528e+08 1.7989e+08  47.9%   244 54148s
  4395  4033 2.0118e+08   28 15081 3.4528e+08 1.7989e+08  47.9%   246 55024s
  4399  4039 1.7991e+08   29 16927 3.4528e+08 1.7991e+08  47.9%   246 55303s
  4405  4040 1.7993e+08   30 16835 3.4528e+08 1.7993e+08  47.9%   248 55546s
  4413  4047 1.9654e+08   30 13480 3.4528e+08 1.7993e+08  47.9%   251 55775s
  4421  4051 1.7996e+08   31 16632 3.4528e+08 1.7996e+08  47.9%   253 56579s
  4429  4057 1.9719e+08   31 13621 3.4528e+08 1.7996e+08  47.9%   256 56837s
  4437  4063 1.7998e+08   32 16583 3.4528e+08 1.7998e+08  47.9%   256 57041s
  4446  4068 1.7998e+08   33 16540 3.4528e+08 1.7998e+08  47.9%   258 57287s
  4457  4075 1.8011e+08   34 16419 3.4528e+08 1.8011e+08  47.8%   261 57438s
  4467  4083 1.9747e+08   34 10959 3.4528e+08 1.8011e+08  47.8%   263 58569s
  4478  4090 1.8011e+08   35 16422 3.4528e+08 1.8011e+08  47.8%   264 58828s
  4490  4098 1.8012e+08   36 16422 3.4528e+08 1.8012e+08  47.8%   266 59126s
  4503  4106 1.8012e+08   37 16420 3.4528e+08 1.8012e+08  47.8%   268 59428s
  4518  4115 1.8014e+08   38 16431 3.4528e+08 1.8014e+08  47.8%   270 59886s
  4535  4130 1.8020e+08   39 16442 3.4528e+08 1.8020e+08  47.8%   273 60658s
  4553  4140 1.8025e+08   40 16463 3.4528e+08 1.8025e+08  47.8%   276 61042s
  4569  4150 1.8028e+08   41 16449 3.4528e+08 1.8028e+08  47.8%   278 61641s
  4586  4163 1.8029e+08   42 16428 3.4528e+08 1.8029e+08  47.8%   281 62173s
  4604  4173 1.8030e+08   43 16421 3.4528e+08 1.8030e+08  47.8%   285 62563s
  4622  4185 1.8033e+08   44 16390 3.4528e+08 1.8031e+08  47.8%   287 62892s
  4640  4201 1.8921e+08   44 10729 3.4528e+08 1.8033e+08  47.8%   289 63490s

Cutting planes:
  Gomory: 38
  Cover: 9392
  Clique: 10373
  MIR: 2213
  StrongCG: 7
  Flow cover: 665
  Zero half: 8

Explored 4651 nodes (1462041 simplex iterations) in 64429.29 seconds
Thread count was 8 (of 8 available processors)

Solution count 6: 3.4528e+08 

Solve interrupted (error code 10001)
Best objective 3.452798815924e+08, best bound 1.803259450000e+08, gap 47.7740%
